NAME : 	X-n101-k25	
COMMENT : 	"Generated by Uchoa, Pecin, Pessoa, Poggi, Subramanian, and Vidal (2013)"	
TYPE : 	CVRP	
DIMENSION : 	101	
EDGE_WEIGHT_TYPE : 	EUC_2D	
CAPACITY : 	1500
NODE_COORD_SECTION		
1	365	689
2	146	180
3	792	5
4	658	510
5	461	270
6	299	531
7	812	228
8	643	90
9	615	630
10	258	42
11	616	299
12	475	957
13	425	473
14	406	64
15	656	369
16	202	467
17	318	21
18	579	587
19	458	354
20	575	871
21	47	512
22	568	742
23	128	436
24	546	806
25	197	696
26	615	300
27	852	563
28	772	803
29	678	342
30	916	176
31	390	949
32	113	782
33	226	736
34	119	923
35	584	572
36	134	554
37	912	173
38	827	233
39	851	677
40	598	322
41	627	472
42	94	442
43	688	274
44	977	176
45	597	461
46	931	23
47	170	640
48	941	601
49	873	487
50	797	95
51	451	816
52	866	970
53	833	912
54	106	913
55	260	107
56	332	45
57	685	613
58	728	372
59	487	497
60	702	440
61	717	412
62	635	794
63	927	972
64	635	356
65	634	540
66	658	261
67	303	168
68	707	410
69	254	135
70	346	29
71	75	79
72	893	987
73	729	372
74	29	910
75	356	39
76	274	943
77	322	96
78	664	396
79	704	236
80	415	837
81	576	587
82	750	977
83	726	363
84	861	948
85	302	129
86	415	989
87	199	135
88	801	405
89	679	426
90	994	804
91	311	116
92	739	898
93	268	97
94	176	991
95	688	588
96	107	836
97	708	522
98	679	864
99	985	877
100	954	950
101	615	750
DEMAND_SECTION		
1 1
2 1
3 1
4 1
5 1
6 1
7 1
8 1
9 1
10 1
11 1
12 1
13 1
14 1
15 1
16 1
17 1
18 1
19 1
20 1
21 1
22 1
23 1
24 1
25 1
26 1
27 1
28 1
29 1
30 1
31 1
32 1
33 1
34 1
35 1
36 1
37 1
38 1
39 1
40 1
41 1
42 1
43 1
44 1
45 1
46 1
47 1
48 1
49 1
50 1
51 1
52 1
53 1
54 1
55 1
56 1
57 1
58 1
59 1
60 1
61 1
62 1
63 1
64 1
65 1
66 1
67 1
68 1
69 1
70 1
71 1
72 1
73 1
74 1
75 1
76 1
77 1
78 1
79 1
80 1
81 1
82 1
83 1
84 1
85 1
86 1
87 1
88 1
89 1
90 1
91 1
92 1
93 1
94 1
95 1
96 1
97 1
98 1
99 1
100 1
101 1
DEPOT_SECTION		
	1	
	-1	
EOF		
